;; sequence(s): A97900
;; terms: 1 2 7 32 180 1200 9240 80640 786240 8467200 99792000 1277337600 17643225600 261534873600 4140968832000 69742632960000 1244905998336000 23475370254336000 466306218233856000 9731608032706560000
;; small program: ((loop(((x * y) + x) + y, x, 2 + (2 + x)) div 2) div (1 + 2)) + 1
;; fast program: (1 + ((1 + (2 + (2 + x))) * loop(x * y, x, 1 + x))) div (2 + (2 + 2))
(set-logic UFNIA)
(define-fun divf ((a Int) (b Int)) Int (ite (< 0 b) (div a b) (div (- a) (- b))))
(declare-fun f0 (Int Int) Int)
(declare-fun g0 (Int) Int)
(declare-fun h0 (Int) Int)
(declare-fun u0 (Int Int) Int)
(declare-fun v0 (Int) Int)
(declare-fun small (Int) Int)
(declare-fun f1 (Int Int) Int)
(declare-fun g1 (Int) Int)
(declare-fun h1 (Int) Int)
(declare-fun u1 (Int Int) Int)
(declare-fun v1 (Int) Int)
(declare-fun fast (Int) Int)
(assert (forall ((x Int) (y Int)) (= (f0 x y) (+ (+ (* x y) x) y))))
(assert (forall ((x Int)) (= (g0 x) x)))
(assert (forall ((x Int)) (= (h0 x) (+ 2 (+ 2 x)))))
(assert (forall ((x Int) (y Int)) (= (u0 x y) (ite (<= x 0) y (f0 (u0 (- x 1) y) x)))))
(assert (forall ((x Int)) (= (v0 x) (u0 (g0 x) (h0 x)))))
(assert (forall ((x Int)) (= (small x) (+ (divf (divf (v0 x) 2) (+ 1 2)) 1))))
(assert (forall ((x Int) (y Int)) (= (f1 x y) (* x y))))
(assert (forall ((x Int)) (= (g1 x) x)))
(assert (forall ((x Int)) (= (h1 x) (+ 1 x))))
(assert (forall ((x Int) (y Int)) (= (u1 x y) (ite (<= x 0) y (f1 (u1 (- x 1) y) x)))))
(assert (forall ((x Int)) (= (v1 x) (u1 (g1 x) (h1 x)))))
(assert (forall ((x Int)) (= (fast x) (divf (+ 1 (* (+ 1 (+ 2 (+ 2 x))) (v1 x))) (+ 2 (+ 2 2))))))
(assert (exists ((c Int)) (and (>= c 0) (not (= (small c) (fast c))))))
(check-sat)
